(set-logic HORN)
(declare-fun inv ((_ BitVec 64) (_ BitVec 64) (_ BitVec 64) (_ BitVec 64) ) Bool)
(assert (forall ((a (_ BitVec 64)) (b (_ BitVec 64)) (res (_ BitVec 64)) (cnt (_ BitVec 64))) 
       (=> ( and ( bvsle a (_ bv1000000 64) ) ( bvsle (_ bv0 64) b ) ( bvsle b (_ bv1000000 64) ) ( = res a ) ( = cnt b ) ) (inv a b res cnt))))
(assert (forall ((a (_ BitVec 64)) (b (_ BitVec 64)) (res (_ BitVec 64)) (cnt (_ BitVec 64)) (a! (_ BitVec 64)) (b! (_ BitVec 64)) (res! (_ BitVec 64)) (cnt! (_ BitVec 64))) 
       (=> (and (inv a b res cnt) ( and ( bvsgt cnt (_ bv0 64) ) ( = cnt! ( bvsub cnt (_ bv1 64) ) ) ( = res! ( bvadd res (_ bv1 64) ) ) ( = a! a ) ( = b! b ) )) (inv a! b! res! cnt!))))
(assert (forall ((a (_ BitVec 64)) (b (_ BitVec 64)) (res (_ BitVec 64)) (cnt (_ BitVec 64))) 
       (=> (inv a b res cnt) ( or ( bvsgt cnt (_ bv0 64) ) ( = res ( bvadd a b ) ) ))))
(check-sat)
